N=60;
D=10;
K=2;
S=45;
B=100;
M=[1 1];
MM=[5 5];
ND=2;
T=15;
C=[
10	2
10	2
10	2
10	2
10	2
10	2
10	2
10	2
10	2
10	2
];
beta=[
1	1	0	0	0	0	1	1	0	0	0	0	0	0	0	0	0	0	0	0	0	0	0	0	0	0	0	0	0	0	0	0	0	0	0	0	0	0	0	0	0	0	0	0	0	0	0	0	0	0	0	0	0	0	0	0	0	0	0	0
0	1	1	0	0	0	0	1	1	0	0	0	0	0	0	0	0	0	0	0	0	0	0	0	0	0	0	0	0	0	0	0	0	0	0	0	0	0	0	0	0	0	0	0	0	0	0	0	0	0	0	0	0	0	0	0	0	0	0	0
0	0	1	1	0	0	0	0	1	1	0	0	0	0	0	0	0	0	0	0	0	0	0	0	0	0	0	0	0	0	0	0	0	0	0	0	0	0	0	0	0	0	0	0	0	0	0	0	0	0	0	0	0	0	0	0	0	0	0	0
0	0	0	1	1	0	0	0	0	1	1	0	0	0	0	0	0	0	0	0	0	0	0	0	0	0	0	0	0	0	0	0	0	0	0	0	0	0	0	0	0	0	0	0	0	0	0	0	0	0	0	0	0	0	0	0	0	0	0	0
0	0	0	0	1	1	0	0	0	0	1	1	0	0	0	0	0	0	0	0	0	0	0	0	0	0	0	0	0	0	0	0	0	0	0	0	0	0	0	0	0	0	0	0	0	0	0	0	0	0	0	0	0	0	0	0	0	0	0	0
0	0	0	0	0	0	1	1	0	0	0	0	1	1	0	0	0	0	0	0	0	0	0	0	0	0	0	0	0	0	0	0	0	0	0	0	0	0	0	0	0	0	0	0	0	0	0	0	0	0	0	0	0	0	0	0	0	0	0	0
0	0	0	0	0	0	0	1	1	0	0	0	0	1	1	0	0	0	0	0	0	0	0	0	0	0	0	0	0	0	0	0	0	0	0	0	0	0	0	0	0	0	0	0	0	0	0	0	0	0	0	0	0	0	0	0	0	0	0	0
0	0	0	0	0	0	0	0	1	1	0	0	0	0	1	1	0	0	0	0	0	0	0	0	0	0	0	0	0	0	0	0	0	0	0	0	0	0	0	0	0	0	0	0	0	0	0	0	0	0	0	0	0	0	0	0	0	0	0	0
0	0	0	0	0	0	0	0	0	1	1	0	0	0	0	1	1	0	0	0	0	0	0	0	0	0	0	0	0	0	0	0	0	0	0	0	0	0	0	0	0	0	0	0	0	0	0	0	0	0	0	0	0	0	0	0	0	0	0	0
0	0	0	0	0	0	0	0	0	0	1	1	0	0	0	0	1	1	0	0	0	0	0	0	0	0	0	0	0	0	0	0	0	0	0	0	0	0	0	0	0	0	0	0	0	0	0	0	0	0	0	0	0	0	0	0	0	0	0	0
0	0	0	0	0	0	0	0	0	0	0	0	1	1	0	0	0	0	1	1	0	0	0	0	0	0	0	0	0	0	0	0	0	0	0	0	0	0	0	0	0	0	0	0	0	0	0	0	0	0	0	0	0	0	0	0	0	0	0	0
0	0	0	0	0	0	0	0	0	0	0	0	0	1	1	0	0	0	0	1	1	0	0	0	0	0	0	0	0	0	0	0	0	0	0	0	0	0	0	0	0	0	0	0	0	0	0	0	0	0	0	0	0	0	0	0	0	0	0	0
0	0	0	0	0	0	0	0	0	0	0	0	0	0	1	1	0	0	0	0	1	1	0	0	0	0	0	0	0	0	0	0	0	0	0	0	0	0	0	0	0	0	0	0	0	0	0	0	0	0	0	0	0	0	0	0	0	0	0	0
0	0	0	0	0	0	0	0	0	0	0	0	0	0	0	1	1	0	0	0	0	1	1	0	0	0	0	0	0	0	0	0	0	0	0	0	0	0	0	0	0	0	0	0	0	0	0	0	0	0	0	0	0	0	0	0	0	0	0	0
0	0	0	0	0	0	0	0	0	0	0	0	0	0	0	0	1	1	0	0	0	0	1	1	0	0	0	0	0	0	0	0	0	0	0	0	0	0	0	0	0	0	0	0	0	0	0	0	0	0	0	0	0	0	0	0	0	0	0	0
0	0	0	0	0	0	0	0	0	0	0	0	0	0	0	0	0	0	1	1	0	0	0	0	1	1	0	0	0	0	0	0	0	0	0	0	0	0	0	0	0	0	0	0	0	0	0	0	0	0	0	0	0	0	0	0	0	0	0	0
0	0	0	0	0	0	0	0	0	0	0	0	0	0	0	0	0	0	0	1	1	0	0	0	0	1	1	0	0	0	0	0	0	0	0	0	0	0	0	0	0	0	0	0	0	0	0	0	0	0	0	0	0	0	0	0	0	0	0	0
0	0	0	0	0	0	0	0	0	0	0	0	0	0	0	0	0	0	0	0	1	1	0	0	0	0	1	1	0	0	0	0	0	0	0	0	0	0	0	0	0	0	0	0	0	0	0	0	0	0	0	0	0	0	0	0	0	0	0	0
0	0	0	0	0	0	0	0	0	0	0	0	0	0	0	0	0	0	0	0	0	1	1	0	0	0	0	1	1	0	0	0	0	0	0	0	0	0	0	0	0	0	0	0	0	0	0	0	0	0	0	0	0	0	0	0	0	0	0	0
0	0	0	0	0	0	0	0	0	0	0	0	0	0	0	0	0	0	0	0	0	0	1	1	0	0	0	0	1	1	0	0	0	0	0	0	0	0	0	0	0	0	0	0	0	0	0	0	0	0	0	0	0	0	0	0	0	0	0	0
0	0	0	0	0	0	0	0	0	0	0	0	0	0	0	0	0	0	0	0	0	0	0	0	1	1	0	0	0	0	1	1	0	0	0	0	0	0	0	0	0	0	0	0	0	0	0	0	0	0	0	0	0	0	0	0	0	0	0	0
0	0	0	0	0	0	0	0	0	0	0	0	0	0	0	0	0	0	0	0	0	0	0	0	0	1	1	0	0	0	0	1	1	0	0	0	0	0	0	0	0	0	0	0	0	0	0	0	0	0	0	0	0	0	0	0	0	0	0	0
0	0	0	0	0	0	0	0	0	0	0	0	0	0	0	0	0	0	0	0	0	0	0	0	0	0	1	1	0	0	0	0	1	1	0	0	0	0	0	0	0	0	0	0	0	0	0	0	0	0	0	0	0	0	0	0	0	0	0	0
0	0	0	0	0	0	0	0	0	0	0	0	0	0	0	0	0	0	0	0	0	0	0	0	0	0	0	1	1	0	0	0	0	1	1	0	0	0	0	0	0	0	0	0	0	0	0	0	0	0	0	0	0	0	0	0	0	0	0	0
0	0	0	0	0	0	0	0	0	0	0	0	0	0	0	0	0	0	0	0	0	0	0	0	0	0	0	0	1	1	0	0	0	0	1	1	0	0	0	0	0	0	0	0	0	0	0	0	0	0	0	0	0	0	0	0	0	0	0	0
0	0	0	0	0	0	0	0	0	0	0	0	0	0	0	0	0	0	0	0	0	0	0	0	0	0	0	0	0	0	1	1	0	0	0	0	1	1	0	0	0	0	0	0	0	0	0	0	0	0	0	0	0	0	0	0	0	0	0	0
0	0	0	0	0	0	0	0	0	0	0	0	0	0	0	0	0	0	0	0	0	0	0	0	0	0	0	0	0	0	0	1	1	0	0	0	0	1	1	0	0	0	0	0	0	0	0	0	0	0	0	0	0	0	0	0	0	0	0	0
0	0	0	0	0	0	0	0	0	0	0	0	0	0	0	0	0	0	0	0	0	0	0	0	0	0	0	0	0	0	0	0	1	1	0	0	0	0	1	1	0	0	0	0	0	0	0	0	0	0	0	0	0	0	0	0	0	0	0	0
0	0	0	0	0	0	0	0	0	0	0	0	0	0	0	0	0	0	0	0	0	0	0	0	0	0	0	0	0	0	0	0	0	1	1	0	0	0	0	1	1	0	0	0	0	0	0	0	0	0	0	0	0	0	0	0	0	0	0	0
0	0	0	0	0	0	0	0	0	0	0	0	0	0	0	0	0	0	0	0	0	0	0	0	0	0	0	0	0	0	0	0	0	0	1	1	0	0	0	0	1	1	0	0	0	0	0	0	0	0	0	0	0	0	0	0	0	0	0	0
0	0	0	0	0	0	0	0	0	0	0	0	0	0	0	0	0	0	0	0	0	0	0	0	0	0	0	0	0	0	0	0	0	0	0	0	1	1	0	0	0	0	1	1	0	0	0	0	0	0	0	0	0	0	0	0	0	0	0	0
0	0	0	0	0	0	0	0	0	0	0	0	0	0	0	0	0	0	0	0	0	0	0	0	0	0	0	0	0	0	0	0	0	0	0	0	0	1	1	0	0	0	0	1	1	0	0	0	0	0	0	0	0	0	0	0	0	0	0	0
0	0	0	0	0	0	0	0	0	0	0	0	0	0	0	0	0	0	0	0	0	0	0	0	0	0	0	0	0	0	0	0	0	0	0	0	0	0	1	1	0	0	0	0	1	1	0	0	0	0	0	0	0	0	0	0	0	0	0	0
0	0	0	0	0	0	0	0	0	0	0	0	0	0	0	0	0	0	0	0	0	0	0	0	0	0	0	0	0	0	0	0	0	0	0	0	0	0	0	1	1	0	0	0	0	1	1	0	0	0	0	0	0	0	0	0	0	0	0	0
0	0	0	0	0	0	0	0	0	0	0	0	0	0	0	0	0	0	0	0	0	0	0	0	0	0	0	0	0	0	0	0	0	0	0	0	0	0	0	0	1	1	0	0	0	0	1	1	0	0	0	0	0	0	0	0	0	0	0	0
0	0	0	0	0	0	0	0	0	0	0	0	0	0	0	0	0	0	0	0	0	0	0	0	0	0	0	0	0	0	0	0	0	0	0	0	0	0	0	0	0	0	1	1	0	0	0	0	1	1	0	0	0	0	0	0	0	0	0	0
0	0	0	0	0	0	0	0	0	0	0	0	0	0	0	0	0	0	0	0	0	0	0	0	0	0	0	0	0	0	0	0	0	0	0	0	0	0	0	0	0	0	0	1	1	0	0	0	0	1	1	0	0	0	0	0	0	0	0	0
0	0	0	0	0	0	0	0	0	0	0	0	0	0	0	0	0	0	0	0	0	0	0	0	0	0	0	0	0	0	0	0	0	0	0	0	0	0	0	0	0	0	0	0	1	1	0	0	0	0	1	1	0	0	0	0	0	0	0	0
0	0	0	0	0	0	0	0	0	0	0	0	0	0	0	0	0	0	0	0	0	0	0	0	0	0	0	0	0	0	0	0	0	0	0	0	0	0	0	0	0	0	0	0	0	1	1	0	0	0	0	1	1	0	0	0	0	0	0	0
0	0	0	0	0	0	0	0	0	0	0	0	0	0	0	0	0	0	0	0	0	0	0	0	0	0	0	0	0	0	0	0	0	0	0	0	0	0	0	0	0	0	0	0	0	0	1	1	0	0	0	0	1	1	0	0	0	0	0	0
0	0	0	0	0	0	0	0	0	0	0	0	0	0	0	0	0	0	0	0	0	0	0	0	0	0	0	0	0	0	0	0	0	0	0	0	0	0	0	0	0	0	0	0	0	0	0	0	1	1	0	0	0	0	1	1	0	0	0	0
0	0	0	0	0	0	0	0	0	0	0	0	0	0	0	0	0	0	0	0	0	0	0	0	0	0	0	0	0	0	0	0	0	0	0	0	0	0	0	0	0	0	0	0	0	0	0	0	0	1	1	0	0	0	0	1	1	0	0	0
0	0	0	0	0	0	0	0	0	0	0	0	0	0	0	0	0	0	0	0	0	0	0	0	0	0	0	0	0	0	0	0	0	0	0	0	0	0	0	0	0	0	0	0	0	0	0	0	0	0	1	1	0	0	0	0	1	1	0	0
0	0	0	0	0	0	0	0	0	0	0	0	0	0	0	0	0	0	0	0	0	0	0	0	0	0	0	0	0	0	0	0	0	0	0	0	0	0	0	0	0	0	0	0	0	0	0	0	0	0	0	1	1	0	0	0	0	1	1	0
0	0	0	0	0	0	0	0	0	0	0	0	0	0	0	0	0	0	0	0	0	0	0	0	0	0	0	0	0	0	0	0	0	0	0	0	0	0	0	0	0	0	0	0	0	0	0	0	0	0	0	0	1	1	0	0	0	0	1	1
];
alfa=[
0	0	1	1	1	0	0	0	1	1	1	0	0	0	0	0	0	0	0	0	0	0	0	0	0	0	0	0	0	0	0	0	0	0	0	0	0	0	0	0	0	0	0	0	0	0	0	0	0	0	0	0	0	0	0	0	0	0	0	0
0	0	0	1	0	0	0	0	0	0	0	0	0	0	0	0	0	0	0	0	0	0	0	0	0	0	0	0	0	0	0	0	0	0	0	0	0	0	0	0	0	0	0	0	0	0	0	0	0	0	0	0	0	0	0	0	0	0	0	0
1	1	0	0	0	0	1	1	0	0	0	0	1	1	0	0	0	0	0	0	0	0	0	0	0	0	0	0	0	0	0	0	0	0	0	0	0	0	0	0	0	0	0	0	0	0	0	0	0	0	0	0	0	0	0	0	0	0	0	0
0	0	0	0	0	0	1	0	0	0	0	0	0	0	0	0	0	0	0	0	0	0	0	0	0	0	0	0	0	0	0	0	0	0	0	0	0	0	0	0	0	0	0	0	0	0	0	0	0	0	0	0	0	0	0	0	0	0	0	0
0	0	0	0	0	0	0	1	1	1	0	0	0	1	1	1	0	0	0	1	1	1	0	0	0	0	0	0	0	0	0	0	0	0	0	0	0	0	0	0	0	0	0	0	0	0	0	0	0	0	0	0	0	0	0	0	0	0	0	0
0	0	0	0	0	0	0	0	0	0	0	0	0	0	1	0	0	0	0	0	0	0	0	0	0	0	0	0	0	0	0	0	0	0	0	0	0	0	0	0	0	0	0	0	0	0	0	0	0	0	0	0	0	0	0	0	0	0	0	0
0	0	0	0	0	0	0	0	0	0	0	0	1	1	0	0	0	0	1	1	0	0	0	0	1	1	0	0	0	0	0	0	0	0	0	0	0	0	0	0	0	0	0	0	0	0	0	0	0	0	0	0	0	0	0	0	0	0	0	0
0	0	0	0	0	0	0	0	0	0	0	0	0	0	0	0	0	0	1	0	0	0	0	0	0	0	0	0	0	0	0	0	0	0	0	0	0	0	0	0	0	0	0	0	0	0	0	0	0	0	0	0	0	0	0	0	0	0	0	0
0	0	0	0	0	0	0	0	0	0	0	0	0	0	0	0	0	0	0	0	0	1	1	1	0	0	0	1	1	1	0	0	0	1	1	1	0	0	0	0	0	0	0	0	0	0	0	0	0	0	0	0	0	0	0	0	0	0	0	0
0	0	0	0	0	0	0	0	0	0	0	0	0	0	0	0	0	0	0	0	0	0	0	0	0	0	0	0	1	0	0	0	0	0	0	0	0	0	0	0	0	0	0	0	0	0	0	0	0	0	0	0	0	0	0	0	0	0	0	0
0	0	0	0	0	0	0	0	0	0	0	0	0	0	0	0	0	0	0	0	0	0	0	0	0	0	0	0	0	0	1	1	1	0	0	0	1	1	1	0	0	0	1	1	1	0	0	0	0	0	0	0	0	0	0	0	0	0	0	0
0	0	0	0	0	0	0	0	0	0	0	0	0	0	0	0	0	0	0	0	0	0	0	0	0	0	0	0	0	0	0	0	0	0	0	0	0	1	0	0	0	0	0	0	0	0	0	0	0	0	0	0	0	0	0	0	0	0	0	0
0	0	0	0	0	0	0	0	0	0	0	0	0	0	0	0	0	0	0	0	0	0	0	0	0	0	0	0	0	0	0	0	0	0	0	0	0	0	1	1	1	0	0	0	1	1	1	0	0	0	1	1	1	0	0	0	0	0	0	0
0	0	0	0	0	0	0	0	0	0	0	0	0	0	0	0	0	0	0	0	0	0	0	0	0	0	0	0	0	0	0	0	0	0	0	0	0	0	0	0	0	0	0	0	0	1	0	0	0	0	0	0	0	0	0	0	0	0	0	0
0	0	0	0	0	0	0	0	0	0	0	0	0	0	0	0	0	0	0	0	0	0	0	0	0	0	0	0	0	0	0	0	0	0	0	0	0	0	0	1	1	1	0	0	0	1	1	1	0	0	0	1	1	1	0	0	0	0	0	0
0	0	0	0	0	0	0	0	0	0	0	0	0	0	0	0	0	0	0	0	0	0	0	0	0	0	0	0	0	0	0	0	0	0	0	0	0	0	0	0	0	0	0	0	0	0	1	0	0	0	0	0	0	0	0	0	0	0	0	0
0	0	0	0	0	0	0	0	0	0	0	0	0	0	0	0	0	0	0	0	0	0	0	0	0	0	0	0	0	0	0	0	0	0	0	0	0	0	0	0	0	0	1	1	1	0	0	0	1	1	1	0	0	0	1	1	1	0	0	0
0	0	0	0	0	0	0	0	0	0	0	0	0	0	0	0	0	0	0	0	0	0	0	0	0	0	0	0	0	0	0	0	0	0	0	0	0	0	0	0	0	0	0	0	0	0	0	0	0	1	0	0	0	0	0	0	0	0	0	0
0	0	0	0	0	0	0	0	0	0	0	0	0	0	0	0	0	0	0	0	0	0	0	0	0	0	0	0	0	0	0	0	0	0	0	0	0	0	0	0	0	0	0	0	0	0	0	0	0	0	0	1	1	1	0	0	0	1	1	1
0	0	0	0	0	0	0	0	0	0	0	0	0	0	0	0	0	0	0	0	0	0	0	0	0	0	0	0	0	0	0	0	0	0	0	0	0	0	0	0	0	0	0	0	0	0	0	0	0	0	0	0	0	0	0	0	0	0	1	0
];
t=[
3.16	2.24	4.24	4.12	6.32	7.00	7.07	8.25	9.06	2.55	1.58	0.71	0.71	1.58	2.92	2.12	1.58	1.58	2.12	3.54	2.92	2.55	2.55	2.92	4.30	3.81	3.54	3.54	3.81	5.15	4.74	4.53	4.53	4.74	6.04	5.70	5.52	5.52	5.70	6.96	6.67	6.52	6.52	6.67	7.91	7.65	7.52	7.52	7.65	8.86	8.63	8.51	8.51	8.63
3.16	2.24	2.00	5.00	5.10	6.71	7.21	7.07	8.94	0.71	1.58	2.55	3.54	4.53	0.71	1.58	2.55	3.54	4.53	1.58	2.12	2.92	3.81	4.74	2.55	2.92	3.54	4.30	5.15	3.54	3.81	4.30	4.95	5.70	4.53	4.74	5.15	5.70	6.36	5.52	5.70	6.04	6.52	7.11	6.52	6.67	6.96	7.38	7.91	7.52	7.65	7.91	8.28	8.75
2.24	2.24	2.24	2.83	4.12	5.10	5.39	6.08	7.28	2.12	1.58	1.58	2.12	2.92	1.58	0.71	0.71	1.58	2.55	1.58	0.71	0.71	1.58	2.55	2.12	1.58	1.58	2.12	2.92	2.92	2.55	2.55	2.92	3.54	3.81	3.54	3.54	3.81	4.30	4.74	4.53	4.53	4.74	5.15	5.70	5.52	5.52	5.70	6.04	6.67	6.52	6.52	6.67	6.96
4.24	2.00	2.24	4.12	3.16	5.00	5.66	5.10	7.21	2.55	2.92	3.54	4.30	5.15	1.58	2.12	2.92	3.81	4.74	0.71	1.58	2.55	3.54	4.53	0.71	1.58	2.55	3.54	4.53	1.58	2.12	2.92	3.81	4.74	2.55	2.92	3.54	4.30	5.15	3.54	3.81	4.30	4.95	5.70	4.53	4.74	5.15	5.70	6.36	5.52	5.70	6.04	6.52	7.11
4.12	5.00	2.83	4.12	3.61	3.16	3.00	5.00	5.00	4.95	4.30	3.81	3.54	3.54	4.30	3.54	2.92	2.55	2.55	3.81	2.92	2.12	1.58	1.58	3.54	2.55	1.58	0.71	0.71	3.54	2.55	1.58	0.71	0.71	3.81	2.92	2.12	1.58	1.58	4.30	3.54	2.92	2.55	2.55	4.95	4.30	3.81	3.54	3.54	5.70	5.15	4.74	4.53	4.53
6.32	5.10	4.12	3.16	3.61	2.24	3.16	2.00	4.24	5.52	5.52	5.70	6.04	6.52	4.53	4.53	4.74	5.15	5.70	3.54	3.54	3.81	4.30	4.95	2.55	2.55	2.92	3.54	4.30	1.58	1.58	2.12	2.92	3.81	0.71	0.71	1.58	2.55	3.54	0.71	0.71	1.58	2.55	3.54	1.58	1.58	2.12	2.92	3.81	2.55	2.55	2.92	3.54	4.30
7.00	6.71	5.10	5.00	3.16	2.24	1.00	2.24	2.24	6.96	6.67	6.52	6.52	6.67	6.04	5.70	5.52	5.52	5.70	5.15	4.74	4.53	4.53	4.74	4.30	3.81	3.54	3.54	3.81	3.54	2.92	2.55	2.55	2.92	2.92	2.12	1.58	1.58	2.12	2.55	1.58	0.71	0.71	1.58	2.55	1.58	0.71	0.71	1.58	2.92	2.12	1.58	1.58	2.12
7.07	7.21	5.39	5.66	3.00	3.16	1.00	3.16	2.00	7.38	6.96	6.67	6.52	6.52	6.52	6.04	5.70	5.52	5.52	5.70	5.15	4.74	4.53	4.53	4.95	4.30	3.81	3.54	3.54	4.30	3.54	2.92	2.55	2.55	3.81	2.92	2.12	1.58	1.58	3.54	2.55	1.58	0.71	0.71	3.54	2.55	1.58	0.71	0.71	3.81	2.92	2.12	1.58	1.58
8.25	7.07	6.08	5.10	5.00	2.00	2.24	3.16	3.16	7.52	7.52	7.65	7.91	8.28	6.52	6.52	6.67	6.96	7.38	5.52	5.52	5.70	6.04	6.52	4.53	4.53	4.74	5.15	5.70	3.54	3.54	3.81	4.30	4.95	2.55	2.55	2.92	3.54	4.30	1.58	1.58	2.12	2.92	3.81	0.71	0.71	1.58	2.55	3.54	0.71	0.71	1.58	2.55	3.54
9.06	8.94	7.28	7.21	5.00	4.24	2.24	2.00	3.16	9.19	8.86	8.63	8.51	8.51	8.28	7.91	7.65	7.52	7.52	7.38	6.96	6.67	6.52	6.52	6.52	6.04	5.70	5.52	5.52	5.70	5.15	4.74	4.53	4.53	4.95	4.30	3.81	3.54	3.54	4.30	3.54	2.92	2.55	2.55	3.81	2.92	2.12	1.58	1.58	3.54	2.55	1.58	0.71	0.71
2.55	0.71	2.12	2.55	4.95	5.52	6.96	7.38	7.52	9.19	1.00	2.00	3.00	4.00	1.00	1.41	2.24	3.16	4.12	2.00	2.24	2.83	3.61	4.47	3.00	3.16	3.61	4.24	5.00	4.00	4.12	4.47	5.00	5.66	5.00	5.10	5.39	5.83	6.40	6.00	6.08	6.32	6.71	7.21	7.00	7.07	7.28	7.62	8.06	8.00	8.06	8.25	8.54	8.94
1.58	1.58	1.58	2.92	4.30	5.52	6.67	6.96	7.52	8.86	1.00	1.00	2.00	3.00	1.41	1.00	1.41	2.24	3.16	2.24	2.00	2.24	2.83	3.61	3.16	3.00	3.16	3.61	4.24	4.12	4.00	4.12	4.47	5.00	5.10	5.00	5.10	5.39	5.83	6.08	6.00	6.08	6.32	6.71	7.07	7.00	7.07	7.28	7.62	8.06	8.00	8.06	8.25	8.54
0.71	2.55	1.58	3.54	3.81	5.70	6.52	6.67	7.65	8.63	2.00	1.00	1.00	2.00	2.24	1.41	1.00	1.41	2.24	2.83	2.24	2.00	2.24	2.83	3.61	3.16	3.00	3.16	3.61	4.47	4.12	4.00	4.12	4.47	5.39	5.10	5.00	5.10	5.39	6.32	6.08	6.00	6.08	6.32	7.28	7.07	7.00	7.07	7.28	8.25	8.06	8.00	8.06	8.25
0.71	3.54	2.12	4.30	3.54	6.04	6.52	6.52	7.91	8.51	3.00	2.00	1.00	1.00	3.16	2.24	1.41	1.00	1.41	3.61	2.83	2.24	2.00	2.24	4.24	3.61	3.16	3.00	3.16	5.00	4.47	4.12	4.00	4.12	5.83	5.39	5.10	5.00	5.10	6.71	6.32	6.08	6.00	6.08	7.62	7.28	7.07	7.00	7.07	8.54	8.25	8.06	8.00	8.06
1.58	4.53	2.92	5.15	3.54	6.52	6.67	6.52	8.28	8.51	4.00	3.00	2.00	1.00	4.12	3.16	2.24	1.41	1.00	4.47	3.61	2.83	2.24	2.00	5.00	4.24	3.61	3.16	3.00	5.66	5.00	4.47	4.12	4.00	6.40	5.83	5.39	5.10	5.00	7.21	6.71	6.32	6.08	6.00	8.06	7.62	7.28	7.07	7.00	8.94	8.54	8.25	8.06	8.00
2.92	0.71	1.58	1.58	4.30	4.53	6.04	6.52	6.52	8.28	1.00	1.41	2.24	3.16	4.12	1.00	2.00	3.00	4.00	1.00	1.41	2.24	3.16	4.12	2.00	2.24	2.83	3.61	4.47	3.00	3.16	3.61	4.24	5.00	4.00	4.12	4.47	5.00	5.66	5.00	5.10	5.39	5.83	6.40	6.00	6.08	6.32	6.71	7.21	7.00	7.07	7.28	7.62	8.06
2.12	1.58	0.71	2.12	3.54	4.53	5.70	6.04	6.52	7.91	1.41	1.00	1.41	2.24	3.16	1.00	1.00	2.00	3.00	1.41	1.00	1.41	2.24	3.16	2.24	2.00	2.24	2.83	3.61	3.16	3.00	3.16	3.61	4.24	4.12	4.00	4.12	4.47	5.00	5.10	5.00	5.10	5.39	5.83	6.08	6.00	6.08	6.32	6.71	7.07	7.00	7.07	7.28	7.62
1.58	2.55	0.71	2.92	2.92	4.74	5.52	5.70	6.67	7.65	2.24	1.41	1.00	1.41	2.24	2.00	1.00	1.00	2.00	2.24	1.41	1.00	1.41	2.24	2.83	2.24	2.00	2.24	2.83	3.61	3.16	3.00	3.16	3.61	4.47	4.12	4.00	4.12	4.47	5.39	5.10	5.00	5.10	5.39	6.32	6.08	6.00	6.08	6.32	7.28	7.07	7.00	7.07	7.28
1.58	3.54	1.58	3.81	2.55	5.15	5.52	5.52	6.96	7.52	3.16	2.24	1.41	1.00	1.41	3.00	2.00	1.00	1.00	3.16	2.24	1.41	1.00	1.41	3.61	2.83	2.24	2.00	2.24	4.24	3.61	3.16	3.00	3.16	5.00	4.47	4.12	4.00	4.12	5.83	5.39	5.10	5.00	5.10	6.71	6.32	6.08	6.00	6.08	7.62	7.28	7.07	7.00	7.07
2.12	4.53	2.55	4.74	2.55	5.70	5.70	5.52	7.38	7.52	4.12	3.16	2.24	1.41	1.00	4.00	3.00	2.00	1.00	4.12	3.16	2.24	1.41	1.00	4.47	3.61	2.83	2.24	2.00	5.00	4.24	3.61	3.16	3.00	5.66	5.00	4.47	4.12	4.00	6.40	5.83	5.39	5.10	5.00	7.21	6.71	6.32	6.08	6.00	8.06	7.62	7.28	7.07	7.00
3.54	1.58	1.58	0.71	3.81	3.54	5.15	5.70	5.52	7.38	2.00	2.24	2.83	3.61	4.47	1.00	1.41	2.24	3.16	4.12	1.00	2.00	3.00	4.00	1.00	1.41	2.24	3.16	4.12	2.00	2.24	2.83	3.61	4.47	3.00	3.16	3.61	4.24	5.00	4.00	4.12	4.47	5.00	5.66	5.00	5.10	5.39	5.83	6.40	6.00	6.08	6.32	6.71	7.21
2.92	2.12	0.71	1.58	2.92	3.54	4.74	5.15	5.52	6.96	2.24	2.00	2.24	2.83	3.61	1.41	1.00	1.41	2.24	3.16	1.00	1.00	2.00	3.00	1.41	1.00	1.41	2.24	3.16	2.24	2.00	2.24	2.83	3.61	3.16	3.00	3.16	3.61	4.24	4.12	4.00	4.12	4.47	5.00	5.10	5.00	5.10	5.39	5.83	6.08	6.00	6.08	6.32	6.71
2.55	2.92	0.71	2.55	2.12	3.81	4.53	4.74	5.70	6.67	2.83	2.24	2.00	2.24	2.83	2.24	1.41	1.00	1.41	2.24	2.00	1.00	1.00	2.00	2.24	1.41	1.00	1.41	2.24	2.83	2.24	2.00	2.24	2.83	3.61	3.16	3.00	3.16	3.61	4.47	4.12	4.00	4.12	4.47	5.39	5.10	5.00	5.10	5.39	6.32	6.08	6.00	6.08	6.32
2.55	3.81	1.58	3.54	1.58	4.30	4.53	4.53	6.04	6.52	3.61	2.83	2.24	2.00	2.24	3.16	2.24	1.41	1.00	1.41	3.00	2.00	1.00	1.00	3.16	2.24	1.41	1.00	1.41	3.61	2.83	2.24	2.00	2.24	4.24	3.61	3.16	3.00	3.16	5.00	4.47	4.12	4.00	4.12	5.83	5.39	5.10	5.00	5.10	6.71	6.32	6.08	6.00	6.08
2.92	4.74	2.55	4.53	1.58	4.95	4.74	4.53	6.52	6.52	4.47	3.61	2.83	2.24	2.00	4.12	3.16	2.24	1.41	1.00	4.00	3.00	2.00	1.00	4.12	3.16	2.24	1.41	1.00	4.47	3.61	2.83	2.24	2.00	5.00	4.24	3.61	3.16	3.00	5.66	5.00	4.47	4.12	4.00	6.40	5.83	5.39	5.10	5.00	7.21	6.71	6.32	6.08	6.00
4.30	2.55	2.12	0.71	3.54	2.55	4.30	4.95	4.53	6.52	3.00	3.16	3.61	4.24	5.00	2.00	2.24	2.83	3.61	4.47	1.00	1.41	2.24	3.16	4.12	1.00	2.00	3.00	4.00	1.00	1.41	2.24	3.16	4.12	2.00	2.24	2.83	3.61	4.47	3.00	3.16	3.61	4.24	5.00	4.00	4.12	4.47	5.00	5.66	5.00	5.10	5.39	5.83	6.40
3.81	2.92	1.58	1.58	2.55	2.55	3.81	4.30	4.53	6.04	3.16	3.00	3.16	3.61	4.24	2.24	2.00	2.24	2.83	3.61	1.41	1.00	1.41	2.24	3.16	1.00	1.00	2.00	3.00	1.41	1.00	1.41	2.24	3.16	2.24	2.00	2.24	2.83	3.61	3.16	3.00	3.16	3.61	4.24	4.12	4.00	4.12	4.47	5.00	5.10	5.00	5.10	5.39	5.83
3.54	3.54	1.58	2.55	1.58	2.92	3.54	3.81	4.74	5.70	3.61	3.16	3.00	3.16	3.61	2.83	2.24	2.00	2.24	2.83	2.24	1.41	1.00	1.41	2.24	2.00	1.00	1.00	2.00	2.24	1.41	1.00	1.41	2.24	2.83	2.24	2.00	2.24	2.83	3.61	3.16	3.00	3.16	3.61	4.47	4.12	4.00	4.12	4.47	5.39	5.10	5.00	5.10	5.39
3.54	4.30	2.12	3.54	0.71	3.54	3.54	3.54	5.15	5.52	4.24	3.61	3.16	3.00	3.16	3.61	2.83	2.24	2.00	2.24	3.16	2.24	1.41	1.00	1.41	3.00	2.00	1.00	1.00	3.16	2.24	1.41	1.00	1.41	3.61	2.83	2.24	2.00	2.24	4.24	3.61	3.16	3.00	3.16	5.00	4.47	4.12	4.00	4.12	5.83	5.39	5.10	5.00	5.10
3.81	5.15	2.92	4.53	0.71	4.30	3.81	3.54	5.70	5.52	5.00	4.24	3.61	3.16	3.00	4.47	3.61	2.83	2.24	2.00	4.12	3.16	2.24	1.41	1.00	4.00	3.00	2.00	1.00	4.12	3.16	2.24	1.41	1.00	4.47	3.61	2.83	2.24	2.00	5.00	4.24	3.61	3.16	3.00	5.66	5.00	4.47	4.12	4.00	6.40	5.83	5.39	5.10	5.00
5.15	3.54	2.92	1.58	3.54	1.58	3.54	4.30	3.54	5.70	4.00	4.12	4.47	5.00	5.66	3.00	3.16	3.61	4.24	5.00	2.00	2.24	2.83	3.61	4.47	1.00	1.41	2.24	3.16	4.12	1.00	2.00	3.00	4.00	1.00	1.41	2.24	3.16	4.12	2.00	2.24	2.83	3.61	4.47	3.00	3.16	3.61	4.24	5.00	4.00	4.12	4.47	5.00	5.66
4.74	3.81	2.55	2.12	2.55	1.58	2.92	3.54	3.54	5.15	4.12	4.00	4.12	4.47	5.00	3.16	3.00	3.16	3.61	4.24	2.24	2.00	2.24	2.83	3.61	1.41	1.00	1.41	2.24	3.16	1.00	1.00	2.00	3.00	1.41	1.00	1.41	2.24	3.16	2.24	2.00	2.24	2.83	3.61	3.16	3.00	3.16	3.61	4.24	4.12	4.00	4.12	4.47	5.00
4.53	4.30	2.55	2.92	1.58	2.12	2.55	2.92	3.81	4.74	4.47	4.12	4.00	4.12	4.47	3.61	3.16	3.00	3.16	3.61	2.83	2.24	2.00	2.24	2.83	2.24	1.41	1.00	1.41	2.24	2.00	1.00	1.00	2.00	2.24	1.41	1.00	1.41	2.24	2.83	2.24	2.00	2.24	2.83	3.61	3.16	3.00	3.16	3.61	4.47	4.12	4.00	4.12	4.47
4.53	4.95	2.92	3.81	0.71	2.92	2.55	2.55	4.30	4.53	5.00	4.47	4.12	4.00	4.12	4.24	3.61	3.16	3.00	3.16	3.61	2.83	2.24	2.00	2.24	3.16	2.24	1.41	1.00	1.41	3.00	2.00	1.00	1.00	3.16	2.24	1.41	1.00	1.41	3.61	2.83	2.24	2.00	2.24	4.24	3.61	3.16	3.00	3.16	5.00	4.47	4.12	4.00	4.12
4.74	5.70	3.54	4.74	0.71	3.81	2.92	2.55	4.95	4.53	5.66	5.00	4.47	4.12	4.00	5.00	4.24	3.61	3.16	3.00	4.47	3.61	2.83	2.24	2.00	4.12	3.16	2.24	1.41	1.00	4.00	3.00	2.00	1.00	4.12	3.16	2.24	1.41	1.00	4.47	3.61	2.83	2.24	2.00	5.00	4.24	3.61	3.16	3.00	5.66	5.00	4.47	4.12	4.00
6.04	4.53	3.81	2.55	3.81	0.71	2.92	3.81	2.55	4.95	5.00	5.10	5.39	5.83	6.40	4.00	4.12	4.47	5.00	5.66	3.00	3.16	3.61	4.24	5.00	2.00	2.24	2.83	3.61	4.47	1.00	1.41	2.24	3.16	4.12	1.00	2.00	3.00	4.00	1.00	1.41	2.24	3.16	4.12	2.00	2.24	2.83	3.61	4.47	3.00	3.16	3.61	4.24	5.00
5.70	4.74	3.54	2.92	2.92	0.71	2.12	2.92	2.55	4.30	5.10	5.00	5.10	5.39	5.83	4.12	4.00	4.12	4.47	5.00	3.16	3.00	3.16	3.61	4.24	2.24	2.00	2.24	2.83	3.61	1.41	1.00	1.41	2.24	3.16	1.00	1.00	2.00	3.00	1.41	1.00	1.41	2.24	3.16	2.24	2.00	2.24	2.83	3.61	3.16	3.00	3.16	3.61	4.24
5.52	5.15	3.54	3.54	2.12	1.58	1.58	2.12	2.92	3.81	5.39	5.10	5.00	5.10	5.39	4.47	4.12	4.00	4.12	4.47	3.61	3.16	3.00	3.16	3.61	2.83	2.24	2.00	2.24	2.83	2.24	1.41	1.00	1.41	2.24	2.00	1.00	1.00	2.00	2.24	1.41	1.00	1.41	2.24	2.83	2.24	2.00	2.24	2.83	3.61	3.16	3.00	3.16	3.61
5.52	5.70	3.81	4.30	1.58	2.55	1.58	1.58	3.54	3.54	5.83	5.39	5.10	5.00	5.10	5.00	4.47	4.12	4.00	4.12	4.24	3.61	3.16	3.00	3.16	3.61	2.83	2.24	2.00	2.24	3.16	2.24	1.41	1.00	1.41	3.00	2.00	1.00	1.00	3.16	2.24	1.41	1.00	1.41	3.61	2.83	2.24	2.00	2.24	4.24	3.61	3.16	3.00	3.16
5.70	6.36	4.30	5.15	1.58	3.54	2.12	1.58	4.30	3.54	6.40	5.83	5.39	5.10	5.00	5.66	5.00	4.47	4.12	4.00	5.00	4.24	3.61	3.16	3.00	4.47	3.61	2.83	2.24	2.00	4.12	3.16	2.24	1.41	1.00	4.00	3.00	2.00	1.00	4.12	3.16	2.24	1.41	1.00	4.47	3.61	2.83	2.24	2.00	5.00	4.24	3.61	3.16	3.00
6.96	5.52	4.74	3.54	4.30	0.71	2.55	3.54	1.58	4.30	6.00	6.08	6.32	6.71	7.21	5.00	5.10	5.39	5.83	6.40	4.00	4.12	4.47	5.00	5.66	3.00	3.16	3.61	4.24	5.00	2.00	2.24	2.83	3.61	4.47	1.00	1.41	2.24	3.16	4.12	1.00	2.00	3.00	4.00	1.00	1.41	2.24	3.16	4.12	2.00	2.24	2.83	3.61	4.47
6.67	5.70	4.53	3.81	3.54	0.71	1.58	2.55	1.58	3.54	6.08	6.00	6.08	6.32	6.71	5.10	5.00	5.10	5.39	5.83	4.12	4.00	4.12	4.47	5.00	3.16	3.00	3.16	3.61	4.24	2.24	2.00	2.24	2.83	3.61	1.41	1.00	1.41	2.24	3.16	1.00	1.00	2.00	3.00	1.41	1.00	1.41	2.24	3.16	2.24	2.00	2.24	2.83	3.61
6.52	6.04	4.53	4.30	2.92	1.58	0.71	1.58	2.12	2.92	6.32	6.08	6.00	6.08	6.32	5.39	5.10	5.00	5.10	5.39	4.47	4.12	4.00	4.12	4.47	3.61	3.16	3.00	3.16	3.61	2.83	2.24	2.00	2.24	2.83	2.24	1.41	1.00	1.41	2.24	2.00	1.00	1.00	2.00	2.24	1.41	1.00	1.41	2.24	2.83	2.24	2.00	2.24	2.83
6.52	6.52	4.74	4.95	2.55	2.55	0.71	0.71	2.92	2.55	6.71	6.32	6.08	6.00	6.08	5.83	5.39	5.10	5.00	5.10	5.00	4.47	4.12	4.00	4.12	4.24	3.61	3.16	3.00	3.16	3.61	2.83	2.24	2.00	2.24	3.16	2.24	1.41	1.00	1.41	3.00	2.00	1.00	1.00	3.16	2.24	1.41	1.00	1.41	3.61	2.83	2.24	2.00	2.24
6.67	7.11	5.15	5.70	2.55	3.54	1.58	0.71	3.81	2.55	7.21	6.71	6.32	6.08	6.00	6.40	5.83	5.39	5.10	5.00	5.66	5.00	4.47	4.12	4.00	5.00	4.24	3.61	3.16	3.00	4.47	3.61	2.83	2.24	2.00	4.12	3.16	2.24	1.41	1.00	4.00	3.00	2.00	1.00	4.12	3.16	2.24	1.41	1.00	4.47	3.61	2.83	2.24	2.00
7.91	6.52	5.70	4.53	4.95	1.58	2.55	3.54	0.71	3.81	7.00	7.07	7.28	7.62	8.06	6.00	6.08	6.32	6.71	7.21	5.00	5.10	5.39	5.83	6.40	4.00	4.12	4.47	5.00	5.66	3.00	3.16	3.61	4.24	5.00	2.00	2.24	2.83	3.61	4.47	1.00	1.41	2.24	3.16	4.12	1.00	2.00	3.00	4.00	1.00	1.41	2.24	3.16	4.12
7.65	6.67	5.52	4.74	4.30	1.58	1.58	2.55	0.71	2.92	7.07	7.00	7.07	7.28	7.62	6.08	6.00	6.08	6.32	6.71	5.10	5.00	5.10	5.39	5.83	4.12	4.00	4.12	4.47	5.00	3.16	3.00	3.16	3.61	4.24	2.24	2.00	2.24	2.83	3.61	1.41	1.00	1.41	2.24	3.16	1.00	1.00	2.00	3.00	1.41	1.00	1.41	2.24	3.16
7.52	6.96	5.52	5.15	3.81	2.12	0.71	1.58	1.58	2.12	7.28	7.07	7.00	7.07	7.28	6.32	6.08	6.00	6.08	6.32	5.39	5.10	5.00	5.10	5.39	4.47	4.12	4.00	4.12	4.47	3.61	3.16	3.00	3.16	3.61	2.83	2.24	2.00	2.24	2.83	2.24	1.41	1.00	1.41	2.24	2.00	1.00	1.00	2.00	2.24	1.41	1.00	1.41	2.24
7.52	7.38	5.70	5.70	3.54	2.92	0.71	0.71	2.55	1.58	7.62	7.28	7.07	7.00	7.07	6.71	6.32	6.08	6.00	6.08	5.83	5.39	5.10	5.00	5.10	5.00	4.47	4.12	4.00	4.12	4.24	3.61	3.16	3.00	3.16	3.61	2.83	2.24	2.00	2.24	3.16	2.24	1.41	1.00	1.41	3.00	2.00	1.00	1.00	3.16	2.24	1.41	1.00	1.41
7.65	7.91	6.04	6.36	3.54	3.81	1.58	0.71	3.54	1.58	8.06	7.62	7.28	7.07	7.00	7.21	6.71	6.32	6.08	6.00	6.40	5.83	5.39	5.10	5.00	5.66	5.00	4.47	4.12	4.00	5.00	4.24	3.61	3.16	3.00	4.47	3.61	2.83	2.24	2.00	4.12	3.16	2.24	1.41	1.00	4.00	3.00	2.00	1.00	4.12	3.16	2.24	1.41	1.00
8.86	7.52	6.67	5.52	5.70	2.55	2.92	3.81	0.71	3.54	8.00	8.06	8.25	8.54	8.94	7.00	7.07	7.28	7.62	8.06	6.00	6.08	6.32	6.71	7.21	5.00	5.10	5.39	5.83	6.40	4.00	4.12	4.47	5.00	5.66	3.00	3.16	3.61	4.24	5.00	2.00	2.24	2.83	3.61	4.47	1.00	1.41	2.24	3.16	4.12	1.00	2.00	3.00	4.00
8.63	7.65	6.52	5.70	5.15	2.55	2.12	2.92	0.71	2.55	8.06	8.00	8.06	8.25	8.54	7.07	7.00	7.07	7.28	7.62	6.08	6.00	6.08	6.32	6.71	5.10	5.00	5.10	5.39	5.83	4.12	4.00	4.12	4.47	5.00	3.16	3.00	3.16	3.61	4.24	2.24	2.00	2.24	2.83	3.61	1.41	1.00	1.41	2.24	3.16	1.00	1.00	2.00	3.00
8.51	7.91	6.52	6.04	4.74	2.92	1.58	2.12	1.58	1.58	8.25	8.06	8.00	8.06	8.25	7.28	7.07	7.00	7.07	7.28	6.32	6.08	6.00	6.08	6.32	5.39	5.10	5.00	5.10	5.39	4.47	4.12	4.00	4.12	4.47	3.61	3.16	3.00	3.16	3.61	2.83	2.24	2.00	2.24	2.83	2.24	1.41	1.00	1.41	2.24	2.00	1.00	1.00	2.00
8.51	8.28	6.67	6.52	4.53	3.54	1.58	1.58	2.55	0.71	8.54	8.25	8.06	8.00	8.06	7.62	7.28	7.07	7.00	7.07	6.71	6.32	6.08	6.00	6.08	5.83	5.39	5.10	5.00	5.10	5.00	4.47	4.12	4.00	4.12	4.24	3.61	3.16	3.00	3.16	3.61	2.83	2.24	2.00	2.24	3.16	2.24	1.41	1.00	1.41	3.00	2.00	1.00	1.00
8.63	8.75	6.96	7.11	4.53	4.30	2.12	1.58	3.54	0.71	8.94	8.54	8.25	8.06	8.00	8.06	7.62	7.28	7.07	7.00	7.21	6.71	6.32	6.08	6.00	6.40	5.83	5.39	5.10	5.00	5.66	5.00	4.47	4.12	4.00	5.00	4.24	3.61	3.16	3.00	4.47	3.61	2.83	2.24	2.00	4.12	3.16	2.24	1.41	1.00	4.00	3.00	2.00	1.00
];
